sat
(:max-memory         18.05
 :memory             18.05
 :nlsat-propagations 8
 :nlsat-stages       4
 :num-allocs         22598
 :rlimit-count       3567
 :time               0.00
 :total-time         0.01)
